array[docs,1..DAYS] of var int: REQUESTS = array2d(docs,1..DAYS,[
0 , 0 , 0 , 0 , 0 , 0 , 0 ,% day 7 RG
 0 , 0 , 0 , 0 , 0 , 0 , 0 ,% day 14 RG
 0 , 0 , 0 , 0 , 0 , 0 , 0 ,% day 21 RG
 41, 41, 41, 41, 0 , 0 , 0 ,% day 28 RG
 0 , 0 , 0 , 0 , 0 , 0 , 0 ,% day 35 RG
 0 , 0 , 0 , 0 , 0 , 0 , 0 ,% day 42 RG
 0 , 0 , 0 , 0 , 0 , 0 , 0 ,% day 49 RG
 0 , 0 , 0 , 0 , 0 , 0 , 0 ,% day 56 RG
 0 , 0 , 0 , 0 , 0 , 0 , 0 ,% day 63 RG
 0 , 0 , 0 , 0 , 0 , 0 , 0 ,% day 70 RG

 0 , 0 , 0 , 0 , 0 , 0 , 0 ,% day 7 GM
 0 , 0 , 0 , 0 , 0 , 0 , 0 ,% day 14 GM
 0 , 0 , 0 , 0 , 0 , 0 , 0 ,% day 21 GM
 0 , 0 , 0 , 0 , 0 , 0 , 0 ,% day 28 GM
 0 , 0 , 0 , 0 , 0 , 0 , 0 ,% day 35 GM
 0 , 0 , 0 , 0 , 0 , 0 , 0 ,% day 42 GM
 0 , 0 , 0 , 0 , 0 , 0 , 0 ,% day 49 GM
 0 , 0 , 0 , 0 , 0 , 99, 99,% day 56 GM
 41, 41, 41, 41, 0 , 0 , 0 ,% day 63 GM
 0 , 0 , 0 , 0 , 0 , 0 , 0 ,% day 70 GM

 0 , 0 , 0 , 0 , 0 , 0 , 0 ,% day 7 DB
 0 , 0 , 0 , 0 , 0 , 0 , 0 ,% day 14 DB
 0 , 0 , 0 , 0 , 0 , 0 , 0 ,% day 21 DB
 41, 41, 41, 41, 0 , 0 , 0 ,% day 28 DB
 0 , 0 , 0 , 0 , 0 , 0 , 0 ,% day 35 DB
 0 , 0 , 0 , 0 , 0 , 0 , 0 ,% day 42 DB
 0 , 0 , 0 , 0 , 0 , 0 , 0 ,% day 49 DB
 0 , 0 , 0 , 0 , 0 , 0 , 0 ,% day 56 DB
 0 , 0 , 0 , 0 , 0 , 0 , 0 ,% day 63 DB
 0 , 0 , 0 , 0 , 0 , 0 , 0 ,% day 70 DB

 0 , 0 , 0 , 0 , 0 , 0 , 0 ,% day 7 CC
 0 , 0 , 0 , 0 , 0 , 0 , 0 ,% day 14 CC
 0 , 0 , 0 , 0 , 0 , 99, 99,% day 21 CC
 41, 41, 41, 41, 99, 99, 99,% day 28 CC
 91, 0 , 0 , 0 , 0 , 0 , 0 ,% day 35 CC
 0 , 0 , 0 , 0 , 0 , 0 , 0 ,% day 42 CC
 0 , 0 , 0 , 0 , 92, 99, 0 ,% day 49 CC
 0 , 0 , 0 , 0 , 0 , 0 , 0 ,% day 56 CC
 0 , 0 , 0 , 0 , 0 , 0 , 0 ,% day 63 CC
 0 , 0 , 0 , 0 , 0 , 0 , 0 ,% day 70 CC

 0 , 0 , 0 , 0 , 0 , 0 , 0 ,% day 7 MC
 43, 43, 43, 43, 0 , 0 , 0 ,% day 14 MC
 43, 43, 43, 43, 0 , 0 , 0 ,% day 21 MC
 43, 43, 43, 43, 0 , 0 , 0 ,% day 28 MC
 0 , 0 , 0 , 0 , 0 , 92, 0 ,% day 35 MC
 0 , 0 , 0 , 0 , 0 , 0 , 0 ,% day 42 MC
 0 , 0 , 0 , 0 , 0 , 99, 99,% day 49 MC
 0 , 0 , 0 , 0 , 0 , 0 , 0 ,% day 56 MC
 0 , 0 , 0 , 0 , 0 , 0 , 0 ,% day 63 MC
 0 , 0 , 0 , 0 , 0 , 0 , 0 ,% day 70 MC

 0 , 2 , 0 , 0 , 0 , 2 , 2 ,% day 7 SD
 41, 41, 41, 41, 0 , 0 , 0 ,% day 14 SD
 0 , 0 , 0 , 0 , 0 , 2 , 2 ,% day 21 SD
 0 , 0 , 0 , 0 , 0 , 0 , 0 ,% day 28 SD
 0 , 0 , 0 , 0 , 0 , 0 , 0 ,% day 35 SD
 0 , 0 , 0 , 0 , 0 , 0 , 0 ,% day 42 SD
 0 , 0 , 0 , 0 , 0 , 0 , 0 ,% day 49 SD
 0 , 0 , 0 , 0 , 0 , 0 , 0 ,% day 56 SD
 0 , 0 , 0 , 0 , 0 , 0 , 0 ,% day 63 SD
 0 , 0 , 0 , 0 , 0 , 0 , 0 ,% day 70 SD

 0 , 0 , 0 , 0 , 99, 99, 0 ,% day 7 ML
 0 , 0 , 41, 0 , 99, 99, 0 ,% day 14 ML
 0 , 0 , 41, 0 , 99, 99, 0 ,% day 21 ML
 0 , 0 , 0 , 0 , 99, 99, 0 ,% day 28 ML
 0 , 0 , 0 , 0 , 99, 99, 0 ,% day 35 ML
 0 , 0 , 41, 0 , 99, 99, 0 ,% day 42 ML
 0 , 0 , 41, 0 , 99, 99, 0 ,% day 49 ML
 0 , 0 , 0 , 0 , 99, 99, 0 ,% day 56 ML
 0 , 0 , 0 , 0 , 99, 99, 0 ,% day 63 ML
 0 , 0 , 0 , 0 , 99, 99, 0 ,% day 70 ML

 41, 41, 41, 41, 99, 99, 99,% day 7 HL
 99, 0 , 0 , 0 , 0 , 0 , 0 ,% day 14 HL
 0 , 0 , 0 , 0 , 0 , 0 , 0 ,% day 21 HL
 0 , 0 , 0 , 0 , 99, 99, 99,% day 28 HL
 41, 0 , 0 , 0 , 0 , 99, 99,% day 35 HL
 0 , 0 , 0 , 0 , 0 , 99, 99,% day 42 HL
 0 , 0 , 0 , 0 , 0 , 99, 99,% day 49 HL
 0 , 0 , 0 , 0 , 0 , 0 , 0 ,% day 56 HL
 0 , 0 , 0 , 0 , 0 , 0 , 0 ,% day 63 HL
 0 , 0 , 0 , 0 , 99, 99, 99,% day 70 HL

 99, 2 , 0 , 1 , 1 , 99, 99,% day 7 DL
 41, 41, 41, 41, 0 , 0 , 0 ,% day 14 DL
 99, 0 , 0 , 0 , 0 , 0 , 0 ,% day 21 DL
 0 , 0 , 0 , 0 , 0 , 0 , 0 ,% day 28 DL
 0 , 0 , 0 , 99, 1 , 99, 99,% day 35 DL
 0 , 0 , 0 , 0 , 0 , 0 , 0 ,% day 42 DL
 0 , 0 , 0 , 0 , 0 , 0 , 0 ,% day 49 DL
 0 , 0 , 0 , 0 , 0 , 99, 99,% day 56 DL
 41, 41, 41, 41, 99, 99, 99,% day 63 DL
 0 , 0 , 0 , 0 , 0 , 0 , 0 ,% day 70 DL

 41, 41, 0 , 0 , 0 , 0 , 0 ,% day 7 RM
 0 , 0 , 0 , 0 , 0 , 0 , 0 ,% day 14 RM
 0 , 0 , 0 , 0 , 0 , 0 , 0 ,% day 21 RM
 0 , 0 , 0 , 0 , 0 , 0 , 0 ,% day 28 RM
 0 , 0 , 0 , 0 , 0 , 0 , 0 ,% day 35 RM
 0 , 0 , 0 , 0 , 0 , 0 , 0 ,% day 42 RM
 0 , 0 , 0 , 0 , 0 , 0 , 0 ,% day 49 RM
 0 , 0 , 0 , 0 , 99, 99, 99,% day 56 RM
 41, 41, 41, 41, 99, 99, 99,% day 63 RM
 41, 41, 41, 41, 0 , 0 , 0 ,% day 70 RM

 0 , 0 , 0 , 41, 0 , 0 , 0 ,% day 7 GN
 0 , 0 , 0 , 41, 0 , 41, 0 ,% day 14 GN
 41, 0 , 41, 41, 0 , 0 , 0 ,% day 21 GN
 0 , 0 , 0 , 41, 0 , 0 , 0 ,% day 28 GN
 0 , 0 , 0 , 41, 0 , 0 , 0 ,% day 35 GN
 0 , 0 , 0 , 41, 0 , 0 , 0 ,% day 42 GN
 0 , 0 , 0 , 41, 0 , 0 , 0 ,% day 49 GN
 0 , 0 , 0 , 41, 0 , 0 , 0 ,% day 56 GN
 0 , 0 , 0 , 41, 0 , 0 , 0 ,% day 63 GN
 0 , 0 , 0 , 41, 0 , 0 , 0 ,% day 70 GN

 44, 44, 44, 44, 0 , 0 , 0 ,% day 7 EW
 44, 44, 44, 44, 0 , 0 , 0 ,% day 14 EW
 44, 44, 44, 44, 0 , 0 , 0 ,% day 21 EW
 44, 44, 44, 44, 0 , 0 , 0 ,% day 28 EW
 44, 44, 44, 44, 0 , 0 , 0 ,% day 35 EW
 44, 44, 44, 44, 0 , 0 , 0 ,% day 42 EW
 0 , 0 , 0 , 0 , 0 , 0 , 0 ,% day 49 EW
 0 , 0 , 0 , 0 , 0 , 0 , 0 ,% day 56 EW
 0 , 0 , 0 , 0 , 0 , 0 , 0 ,% day 63 EW
 0 , 0 , 0 , 0 , 0 , 0 , 0 ,% day 70 EW

 0 , 0 , 0 , 0 , 0 , 99, 0 ,% day 7 LB
 0 , 0 , 0 , 0 , 0 , 0 , 0 ,% day 14 LB
 0 , 0 , 0 , 0 , 0 , 0 , 0 ,% day 21 LB
 0 , 0 , 0 , 0 , 0 , 99, 99,% day 28 LB
 41, 0 , 41, 0 , 41, 99, 99,% day 35 LB
 0 , 0 , 0 , 0 , 0 , 0 , 0 ,% day 42 LB
 0 , 0 , 0 , 0 , 0 , 0 , 0 ,% day 49 LB
 0 , 0 , 42, 0 , 42, 0 , 0 ,% day 56 LB
 0 , 0 , 0 , 0 , 0 , 0 , 0 ,% day 63 LB
 0 , 0 , 0 , 0 , 0 , 0 , 0 ,% day 70 LB

 0 , 0 , 0 , 0 , 0 , 91, 0 ,% day 7 DH
 0 , 0 , 0 , 0 , 0 , 0 , 0 ,% day 14 DH
 0 , 0 , 0 , 0 , 41, 0 , 0 ,% day 21 DH
 41, 0 , 41, 0 , 41, 99, 0 ,% day 28 DH
 0 , 0 , 0 , 0 , 0 , 0 , 0 ,% day 35 DH
 0 , 0 , 0 , 0 , 0 , 0 , 0 ,% day 42 DH
 0 , 0 , 0 , 0 , 0 , 99, 0 ,% day 49 DH
 0 , 0 , 0 , 0 , 0 , 0 , 0 ,% day 56 DH
 0 , 0 , 0 , 0 , 0 , 0 , 0 ,% day 63 DH
 0 , 0 , 0 , 0 , 0 , 99, 0 ,% day 70 DH

 0 , 0 , 0 , 0 , 0 , 0 , 0 ,% day 7 SK
 0 , 0 , 0 , 0 , 0 , 0 , 0 ,% day 14 SK
 0 , 0 , 0 , 0 , 0 , 0 , 0 ,% day 21 SK
 42, 42, 0 , 0 , 0 , 0 , 0 ,% day 28 SK
 0 , 0 , 0 , 0 , 0 , 0 , 0 ,% day 35 SK
 0 , 0 , 0 , 0 , 0 , 0 , 0 ,% day 42 SK
 41, 41, 0 , 0 , 0 , 0 , 0 ,% day 49 SK
 0 , 0 , 0 , 0 , 0 , 0 , 0 ,% day 56 SK
 0 , 0 , 0 , 0 , 0 , 0 , 0 ,% day 63 SK
 0 , 0 , 0 , 0 , 0 , 0 , 0 ,% day 70 SK

 0 , 0 , 0 , 2 , 0 , 0 , 99,% day 7 BL
 0 , 0 , 0 , 99, 0 , 0 , 2 ,% day 14 BL
 0 , 0 , 0 , 3 , 0 , 0 , 2 ,% day 21 BL
 0 , 0 , 1 , 1 , 2 , 0 , 2 ,% day 28 BL
 0 , 0 , 1 , 2 , 0 , 0 , 0 ,% day 35 BL
 0 , 0 , 0 , 43, 0 , 0 , 0 ,% day 42 BL
 0 , 0 , 0 , 43, 0 , 0 , 0 ,% day 49 BL
 0 , 0 , 0 , 43, 0 , 0 , 0 ,% day 56 BL
 0 , 0 , 0 , 43, 0 , 0 , 0 ,% day 63 BL
 0 , 0 , 0 , 43, 0 , 0 , 0 ,% day 70 BL

 0 , 0 , 0 , 0 , 0 , 0 , 0 ,% day 7 CP
 0 , 0 , 0 , 0 , 0 , 0 , 0 ,% day 14 CP
 0 , 0 , 0 , 0 , 0 , 0 , 0 ,% day 21 CP
 0 , 0 , 0 , 0 , 0 , 0 , 0 ,% day 28 CP
 0 , 0 , 0 , 0 , 0 , 0 , 0 ,% day 35 CP
 0 , 0 , 0 , 0 , 0 , 0 , 0 ,% day 42 CP
 0 , 0 , 0 , 0 , 0 , 0 , 0 ,% day 49 CP
 0 , 0 , 0 , 0 , 0 , 0 , 0 ,% day 56 CP
 0 , 0 , 0 , 0 , 0 , 0 , 0 ,% day 63 CP
 0 , 0 , 0 , 0 , 0 , 0 , 0 ,% day 70 CP

 0 , 41, 0 , 0 , 0 , 0 , 0 ,% day 7 RP
 0 , 0 , 0 , 0 , 0 , 0 , 0 ,% day 14 RP
 0 , 0 , 0 , 0 , 0 , 0 , 0 ,% day 21 RP
 0 , 0 , 0 , 0 , 0 , 0 , 41,% day 28 RP
 0 , 41, 0 , 41, 0 , 0 , 0 ,% day 35 RP
 0 , 0 , 0 , 0 , 0 , 0 , 0 ,% day 42 RP
 0 , 0 , 0 , 0 , 0 , 0 , 0 ,% day 49 RP
 0 , 0 , 0 , 1 , 0 , 0 , 0 ,% day 56 RP
 0 , 0 , 0 , 0 , 0 , 0 , 0 ,% day 63 RP
 0 , 0 , 0 , 0 , 0 , 0 , 0 ,% day 70 RP

 0 , 0 , 0 , 0 , 0 , 0 , 0 ,% day 7 AR
 0 , 0 , 0 , 0 , 0 , 0 , 0 ,% day 14 AR
 0 , 0 , 0 , 0 , 0 , 1 , 0 ,% day 21 AR
 0 , 0 , 0 , 0 , 0 , 0 , 0 ,% day 28 AR
 0 , 0 , 0 , 0 , 0 , 0 , 0 ,% day 35 AR
 0 , 0 , 0 , 0 , 0 , 1 , 0 ,% day 42 AR
 0 , 0 , 0 , 0 , 0 , 0 , 0 ,% day 49 AR
 0 , 0 , 0 , 0 , 0 , 0 , 0 ,% day 56 AR
 0 , 0 , 0 , 0 , 0 , 0 , 0 ,% day 63 AR
 0 , 0 , 0 , 0 , 0 , 1 , 0 ,% day 70 AR

 1 , 0 , 2 , 0 , 2 , 2 , 0 ,% day 7 LS
 0 , 0 , 2 , 0 , 0 , 0 , 0 ,% day 14 LS
 99, 1 , 0 , 0 , 1 , 1 , 1 ,% day 21 LS
 0 , 0 , 2 , 0 , 0 , 0 , 0 ,% day 28 LS
 1 , 0 , 2 , 0 , 2 , 2 , 0 ,% day 35 LS
 0 , 0 , 2 , 0 , 0 , 0 , 0 ,% day 42 LS
 1 , 0 , 0 , 0 , 1 , 1 , 1 ,% day 49 LS
 0 , 0 , 2 , 0 , 0 , 0 , 0 ,% day 56 LS
 1 , 1 , 2 , 2 , 99, 99, 99,% day 63 LS
 0 , 0 , 2 , 0 , 0 , 0 , 0 ,% day 70 LS

 0 , 99, 0 , 0 , 0 , 0 , 0 ,% day 7 AV
 0 , 0 , 0 , 0 , 0 , 99, 0 ,% day 14 AV
 0 , 0 , 0 , 0 , 0 , 0 , 0 ,% day 21 AV
 0 , 0 , 0 , 0 , 0 , 0 , 0 ,% day 28 AV
 0 , 0 , 0 , 0 , 0 , 0 , 0 ,% day 35 AV
 0 , 0 , 0 , 99, 99, 99, 0 ,% day 42 AV
 0 , 0 , 0 , 0 , 0 , 0 , 0 ,% day 49 AV
 0 , 0 , 0 , 0 , 0 , 0 , 0 ,% day 56 AV
 0 , 0 , 0 , 0 , 0 , 0 , 0 ,% day 63 AV
 0 , 0 , 0 , 0 , 0 , 0 , 0 ,% day 70 AV

 0 , 0 , 0 , 99, 0 , 1 , 99,% day 7 LC
 0 , 0 , 0 , 0 , 0 , 0 , 0 ,% day 14 LC
 0 , 0 , 0 , 0 , 0 , 0 , 0 ,% day 21 LC
 0 , 0 , 0 , 0 , 0 , 0 , 0 ,% day 28 LC
 0 , 0 , 0 , 0 , 0 , 0 , 0 ,% day 35 LC
 0 , 0 , 0 , 0 , 0 , 0 , 0 ,% day 42 LC
 0 , 0 , 0 , 0 , 0 , 0 , 0 ,% day 49 LC
 0 , 1 , 0 , 41, 0 , 0 , 0 ,% day 56 LC
 0 , 41, 0 , 41, 0 , 0 , 0 ,% day 63 LC
 0 , 0 , 0 , 0 , 0 , 0 , 0 ,% day 70 LC

 41, 0 , 0 , 0 , 0 , 0 , 2 ,% day 7 KM
 0 , 0 , 0 , 0 , 0 , 0 , 0 ,% day 14 KM
 41, 0 , 0 , 0 , 0 , 0 , 0 ,% day 21 KM
 1 , 0 , 0 , 0 , 0 , 0 , 0 ,% day 28 KM
 1 , 0 , 0 , 0 , 0 , 0 , 1 ,% day 35 KM
 0 , 0 , 0 , 0 , 0 , 0 , 0 ,% day 42 KM
 2 , 0 , 0 , 0 , 0 , 0 , 0 ,% day 49 KM
 1 , 0 , 0 , 0 , 0 , 0 , 0 ,% day 56 KM
 1 , 0 , 0 , 0 , 0 , 0 , 2 ,% day 63 KM
 0 , 0 , 0 , 0 , 0 , 0 , 0 ,% day 70 KM

 0 , 0 , 0 , 0 , 0 , 0 , 0 ,% day 7 DZ
 0 , 0 , 0 , 0 , 0 , 0 , 1 ,% day 14 DZ
 0 , 0 , 0 , 0 , 0 , 0 , 0 ,% day 21 DZ
 0 , 0 , 0 , 0 , 0 , 0 , 1 ,% day 28 DZ
 0 , 0 , 0 , 0 , 0 , 0 , 0 ,% day 35 DZ
 0 , 0 , 0 , 0 , 0 , 0 , 1 ,% day 42 DZ
 0 , 0 , 0 , 0 , 0 , 0 , 0 ,% day 49 DZ
 0 , 0 , 0 , 0 , 0 , 0 , 1 ,% day 56 DZ
 0 , 0 , 0 , 0 , 0 , 0 , 0 ,% day 63 DZ
 0 , 0 , 0 , 0 , 0 , 0 , 1 ,% day 70 DZ

 0 , 0 , 0 , 0 , 0 , 0 , 0 ,% day 7 BB
 0 , 0 , 0 , 0 , 0 , 0 , 0 ,% day 14 BB
 0 , 0 , 0 , 0 , 0 , 0 , 0 ,% day 21 BB
 0 , 0 , 0 , 0 , 0 , 0 , 0 ,% day 28 BB
 0 , 41, 41, 0 , 0 , 0 , 0 ,% day 35 BB
 0 , 0 , 0 , 0 , 0 , 0 , 0 ,% day 42 BB
 0 , 0 , 0 , 0 , 0 , 0 , 0 ,% day 49 BB
 0 , 0 , 0 , 0 , 0 , 0 , 0 ,% day 56 BB
 0 , 0 , 0 , 0 , 0 , 0 , 0 ,% day 63 BB
 0 , 0 , 0 , 0 , 0 , 0 , 0 ,% day 70 BB

 77, 0 , 1 , 0 , 0 , 0 , 0 ,% day 7 JD
 0 , 0 , 1 , 0 , 0 , 0 , 0 ,% day 14 JD
 0 , 0 , 1 , 0 , 0 , 0 , 0 ,% day 21 JD
 0 , 0 , 1 , 0 , 0 , 0 , 0 ,% day 28 JD
 0 , 0 , 1 , 0 , 0 , 0 , 0 ,% day 35 JD
 0 , 0 , 1 , 0 , 0 , 0 , 0 ,% day 42 JD
 0 , 0 , 1 , 0 , 0 , 0 , 0 ,% day 49 JD
 0 , 0 , 42, 0 , 0 , 0 , 0 ,% day 56 JD
 0 , 0 , 1 , 0 , 0 , 0 , 0 ,% day 63 JD
 0 , 0 , 1 , 0 , 0 , 0 , 77,% day 70 JD

]); %end of REQUESTS ARRAY
constraint count(roster[RG,..],l)=4;
constraint count(roster[GM,..],l)=4;
constraint count(roster[DB,..],l)=4;
constraint count(roster[CC,..],l)=4;
constraint count(roster[MC,..],l)=12;
constraint count(roster[SD,..],l)=4;
constraint count(roster[ML,..],l)=4;
constraint count(roster[HL,..],l)=5;
constraint count(roster[DL,..],l)=8;
constraint count(roster[RM,..],l)=10;
constraint count(roster[GN,..],l)=13;
constraint count(roster[EW,..],l)=24;
constraint count(roster[LB,..],l)=5;
constraint count(roster[DH,..],l)=4;
constraint count(roster[SK,..],l)=4;
constraint count(roster[BL,..],l)=5;
constraint count(roster[CP,..],l)=0;
constraint count(roster[RP,..],l)=4;
constraint count(roster[AR,..],l)=0;
constraint count(roster[LS,..],l)=0;
constraint count(roster[AV,..],l)=0;
constraint count(roster[LC,..],l)=3;
constraint count(roster[KM,..],l)=2;
constraint count(roster[DZ,..],l)=0;
constraint count(roster[BB,..],l)=2;
constraint count(roster[JD,..],l)=1;